(set-info :source |printed by MathSAT|)
(declare-fun |process_ihex::__CPAchecker_TMP_2@3| () Real)
(declare-fun |__ADDRESS_OF_process_ihex::record| () Real)
(declare-fun |hex::crc@3| () Real)
(declare-fun |hex::val@2| () Real)
(declare-fun |__ADDRESS_OF_process_ihex::__CPAchecker_TMP_1| () Real)
(declare-fun |__ADDRESS_OF_process_ihex::i| () Real)
(declare-fun |nybble::__retval__@3| () Real)
(declare-fun getopt (Real Real Real) Real)
(declare-fun __ADDRESS_OF_records () Real)
(declare-fun |__ADDRESS_OF_hex::__CPAchecker_TMP_0| () Real)
(declare-fun |hex::crc@2| () Real)
(declare-fun |process_ihex::i@6| () Real)
(declare-fun __ADDRESS_OF_optind () Real)
(declare-fun |nybble::n@4| () Real)
(declare-fun |hex::__CPAchecker_TMP_1@3| () Real)
(declare-fun |__ADDRESS_OF_process_ihex::j| () Real)
(declare-fun |__ADDRESS_OF_main::__CPAchecker_TMP_10| () Real)
(declare-fun *unsigned_char@2 (Real) Real)
(declare-fun |__ADDRESS_OF_hex::__CPAchecker_TMP_1| () Real)
(declare-fun _<<_ (Real Real) Real)
(declare-fun fstat (Real Real) Real)
(declare-fun |hex::__CPAchecker_TMP_1@5| () Real)
(declare-fun |main::infd@3| () Real)
(declare-fun |hex::__retval__@2| () Real)
(declare-fun |process_ihex::i@5| () Real)
(declare-fun Num@2 () Real)
(declare-fun *signed_long_int@2 (Real) Real)
(declare-fun __ADDRESS_OF_sort_records () Real)
(declare-fun |process_ihex::data@2| () Real)
(declare-fun |main::argv@1| () Real)
(declare-fun |nybble::__retval__@5| () Real)
(declare-fun |nybble::__retval__@2| () Real)
(declare-fun Num@3 () Real)
(declare-fun |__ADDRESS_OF_process_ihex::data32| () Real)
(declare-fun |process_ihex::size@2| () Real)
(declare-fun __ADDRESS_OF_wide_records () Real)
(declare-fun __BASE_ADDRESS_OF__ (Real) Real)
(declare-fun |process_ihex::__CPAchecker_TMP_1@1| () Real)
(declare-fun |process_ihex::len@3| () Real)
(declare-fun |main::argc@1| () Real)
(declare-fun |__ADDRESS_OF_main::st| () Real)
(declare-fun sort_records@2 () Real)
(declare-fun |process_ihex::i@4| () Real)
(declare-fun include_jump@2 () Real)
(declare-fun |nybble::n@2| () Real)
(declare-fun |__ADDRESS_OF_process_ihex::line| () Real)
(declare-fun |__ADDRESS_OF_process_ihex::crcbyte| () Real)
(declare-fun |__ADDRESS_OF_process_ihex::type| () Real)
(declare-fun |hex::__retval__@3| () Real)
(declare-fun wide_records@2 () Real)
(declare-fun |nybble::n@3| () Real)
(declare-fun __string__ (Real) Real)
(declare-fun |__ADDRESS_OF_process_ihex::__CPAchecker_TMP_2| () Real)
(declare-fun |main::__CPAchecker_TMP_1@3| () Real)
(declare-fun |hex::val@3| () Real)
(declare-fun mmap (Real Real Real Real Real Real) Real)
(declare-fun |__ADDRESS_OF_main::infd| () Real)
(declare-fun _!!_ (Real Real) Real)
(declare-fun |hex::__CPAchecker_TMP_0@5| () Real)
(declare-fun |process_ihex::i@3| () Real)
(declare-fun |main::opt@3| () Real)
(declare-fun |process_ihex::crcbyte@2| () Real)
(declare-fun |main::__CPAchecker_TMP_5@3| () Real)
(declare-fun |__ADDRESS_OF___VERIFIER_successful_alloc_*void#0| () Real)
(declare-fun |__ADDRESS_OF_process_ihex::offset| () Real)
(declare-fun |__ADDRESS_OF_main::__CPAchecker_TMP_1| () Real)
(declare-fun |process_ihex::len@5| () Real)
(declare-fun |*(char)*@1| (Real) Real)
(declare-fun |process_ihex::offset@2| () Real)
(declare-fun __ADDRESS_OF_stderr () Real)
(declare-fun |main::__CPAchecker_TMP_6@3| () Real)
(declare-fun |nybble::__retval__@4| () Real)
(declare-fun |__ADDRESS_OF_main::outfd| () Real)
(declare-fun |process_ihex::__CPAchecker_TMP_1@2| () Real)
(declare-fun records@2 () Real)
(declare-fun *unsigned_char@1 (Real) Real)
(declare-fun |__ADDRESS_OF_main::__CPAchecker_TMP_5| () Real)
(declare-fun |nybble::n@5| () Real)
(declare-fun |hex::data@2| () Real)
(declare-fun |main::data@3| () Real)
(declare-fun |__ADDRESS_OF_hex::val| () Real)
(declare-fun __ADDRESS_OF_include_jump () Real)
(declare-fun |process_ihex::line@3| () Real)
(declare-fun |process_ihex::line@2| () Real)
(declare-fun |process_ihex::len@4| () Real)
(declare-fun |__ADDRESS_OF_main::data| () Real)
(declare-fun |process_ihex::record@3| () Real)
(declare-fun |__ADDRESS_OF_process_ihex::crc| () Real)
(declare-fun optind@2 () Real)
(declare-fun |__ADDRESS_OF_main::__CPAchecker_TMP_6| () Real)
(declare-fun |main::outfd@3| () Real)
(declare-fun |hex::data@3| () Real)
(declare-fun |process_ihex::crc@2| () Real)
(declare-fun *unsigned_char@3 (Real) Real)
(declare-fun |__ADDRESS_OF_process_ihex::len| () Real)
(declare-fun |process_ihex::__CPAchecker_TMP_2@1| () Real)
(declare-fun |hex::__CPAchecker_TMP_0@3| () Real)
(declare-fun |__ADDRESS_OF_main::opt| () Real)
(declare-fun __ADDRESS_OF_Num () Real)
(declare-fun strcmp (Real Real) Real)
(define-fun .def_207 () Real (* (to_real (- 1)) |__ADDRESS_OF_process_ihex::record|))
(define-fun .def_208 () Real (+ |__ADDRESS_OF_main::st| .def_207))
(define-fun .def_209 () Bool (<= .def_208 (to_real (- 80))))
(define-fun .def_205 () Bool (<= |__ADDRESS_OF_main::st| (to_real (- 80))))
(define-fun .def_206 () Bool (not .def_205))
(define-fun .def_210 () Bool (and .def_206 .def_209))
(define-fun .def_200 () Real (__BASE_ADDRESS_OF__ |__ADDRESS_OF_process_ihex::record|))
(define-fun .def_201 () Bool (= |__ADDRESS_OF_process_ihex::record| .def_200))
(define-fun .def_266 () Bool (and .def_201 .def_210))
(define-fun .def_212 () Real (__BASE_ADDRESS_OF__ |__ADDRESS_OF_process_ihex::offset|))
(define-fun .def_213 () Bool (= |__ADDRESS_OF_process_ihex::offset| .def_212))
(define-fun .def_267 () Bool (and .def_213 .def_266))
(define-fun .def_217 () Real (__BASE_ADDRESS_OF__ |__ADDRESS_OF_process_ihex::data32|))
(define-fun .def_218 () Bool (= |__ADDRESS_OF_process_ihex::data32| .def_217))
(define-fun .def_268 () Bool (and .def_218 .def_267))
(define-fun .def_222 () Real (* (to_real (- 1)) |__ADDRESS_OF_process_ihex::data32|))
(define-fun .def_223 () Real (+ |__ADDRESS_OF_process_ihex::record| .def_222))
(define-fun .def_224 () Bool (<= .def_223 (to_real (- 4))))
(define-fun .def_220 () Bool (<= |__ADDRESS_OF_process_ihex::record| (to_real (- 4))))
(define-fun .def_221 () Bool (not .def_220))
(define-fun .def_225 () Bool (and .def_221 .def_224))
(define-fun .def_269 () Bool (and .def_225 .def_268))
(define-fun .def_227 () Real (__BASE_ADDRESS_OF__ |__ADDRESS_OF_process_ihex::type|))
(define-fun .def_228 () Bool (= |__ADDRESS_OF_process_ihex::type| .def_227))
(define-fun .def_270 () Bool (and .def_228 .def_269))
(define-fun .def_230 () Real (__BASE_ADDRESS_OF__ |__ADDRESS_OF_process_ihex::crc|))
(define-fun .def_231 () Bool (= |__ADDRESS_OF_process_ihex::crc| .def_230))
(define-fun .def_271 () Bool (and .def_231 .def_270))
(define-fun .def_235 () Real (* (to_real (- 1)) |__ADDRESS_OF_process_ihex::crc|))
(define-fun .def_236 () Real (+ |__ADDRESS_OF_process_ihex::data32| .def_235))
(define-fun .def_237 () Bool (<= .def_236 (to_real (- 4))))
(define-fun .def_233 () Bool (<= |__ADDRESS_OF_process_ihex::data32| (to_real (- 4))))
(define-fun .def_234 () Bool (not .def_233))
(define-fun .def_238 () Bool (and .def_234 .def_237))
(define-fun .def_272 () Bool (and .def_238 .def_271))
(define-fun .def_242 () Real (__BASE_ADDRESS_OF__ |__ADDRESS_OF_process_ihex::crcbyte|))
(define-fun .def_243 () Bool (= |__ADDRESS_OF_process_ihex::crcbyte| .def_242))
(define-fun .def_273 () Bool (and .def_243 .def_272))
(define-fun .def_247 () Real (__BASE_ADDRESS_OF__ |__ADDRESS_OF_process_ihex::i|))
(define-fun .def_248 () Bool (= |__ADDRESS_OF_process_ihex::i| .def_247))
(define-fun .def_274 () Bool (and .def_248 .def_273))
(define-fun .def_250 () Real (__BASE_ADDRESS_OF__ |__ADDRESS_OF_process_ihex::j|))
(define-fun .def_251 () Bool (= |__ADDRESS_OF_process_ihex::j| .def_250))
(define-fun .def_275 () Bool (and .def_251 .def_274))
(define-fun .def_253 () Real (__BASE_ADDRESS_OF__ |__ADDRESS_OF_process_ihex::line|))
(define-fun .def_254 () Bool (= |__ADDRESS_OF_process_ihex::line| .def_253))
(define-fun .def_276 () Bool (and .def_254 .def_275))
(define-fun .def_258 () Real (__BASE_ADDRESS_OF__ |__ADDRESS_OF_process_ihex::len|))
(define-fun .def_259 () Bool (= |__ADDRESS_OF_process_ihex::len| .def_258))
(define-fun .def_277 () Bool (and .def_259 .def_276))
(define-fun .def_240 () Bool (= |process_ihex::crc@2| (to_real 0)))
(define-fun .def_215 () Bool (= |process_ihex::offset@2| (to_real 0)))
(define-fun .def_262 () Bool (and .def_215 .def_240))
(define-fun .def_245 () Bool (= |process_ihex::crcbyte@2| (to_real 0)))
(define-fun .def_263 () Bool (and .def_245 .def_262))
(define-fun .def_256 () Bool (= |process_ihex::line@2| (to_real 1)))
(define-fun .def_264 () Bool (and .def_256 .def_263))
(define-fun .def_261 () Bool (= |process_ihex::i@3| (to_real 0)))
(define-fun .def_265 () Bool (and .def_261 .def_264))
(define-fun .def_278 () Bool (and .def_265 .def_277))
(define-fun .def_61 () Real (+ |__ADDRESS_OF_main::st| (to_real 32)))
(define-fun .def_62 () Real (*signed_long_int@2 .def_61))
(define-fun .def_196 () Bool (= .def_62 |process_ihex::size@2|))
(define-fun .def_194 () Bool (= |main::data@3| |process_ihex::data@2|))
(define-fun .def_197 () Bool (and .def_194 .def_196))
(define-fun .def_190 () Real (__BASE_ADDRESS_OF__ |__ADDRESS_OF_main::__CPAchecker_TMP_10|))
(define-fun .def_191 () Bool (= |__ADDRESS_OF_main::__CPAchecker_TMP_10| .def_190))
(define-fun .def_184 () Bool (= |main::outfd@3| (to_real (- 1))))
(define-fun .def_187 () Bool (not .def_184))
(define-fun .def_181 () Bool (= |main::outfd@3| (to_real 1)))
(define-fun .def_175 () Bool (= |main::__CPAchecker_TMP_6@3| (to_real 0)))
(define-fun .def_116 () Real (__string__ (to_real 1)))
(define-fun .def_113 () Real (* (to_real 4) optind@2))
(define-fun .def_114 () Real (+ |main::argv@1| .def_113))
(define-fun .def_169 () Real (+ .def_114 (to_real 4)))
(define-fun .def_170 () Real (|*(char)*@1| .def_169))
(define-fun .def_171 () Real (strcmp .def_170 .def_116))
(define-fun .def_173 () Bool (= .def_171 |main::__CPAchecker_TMP_6@3|))
(define-fun .def_163 () Real (__BASE_ADDRESS_OF__ |__ADDRESS_OF_main::__CPAchecker_TMP_6|))
(define-fun .def_164 () Bool (= |__ADDRESS_OF_main::__CPAchecker_TMP_6| .def_163))
(define-fun .def_157 () Bool (= |main::data@3| (to_real (- 1))))
(define-fun .def_160 () Bool (not .def_157))
(define-fun .def_153 () Real (mmap (to_real 0) .def_62 (to_real 1) (to_real 1) |main::infd@3| (to_real 0)))
(define-fun .def_155 () Bool (= .def_153 |main::data@3|))
(define-fun .def_143 () Bool (= |main::__CPAchecker_TMP_5@3| (to_real 0)))
(define-fun .def_139 () Real (fstat |main::infd@3| |__ADDRESS_OF_main::st|))
(define-fun .def_141 () Bool (= .def_139 |main::__CPAchecker_TMP_5@3|))
(define-fun .def_136 () Real (__BASE_ADDRESS_OF__ |__ADDRESS_OF_main::__CPAchecker_TMP_5|))
(define-fun .def_137 () Bool (= |__ADDRESS_OF_main::__CPAchecker_TMP_5| .def_136))
(define-fun .def_130 () Bool (= |main::infd@3| (to_real (- 1))))
(define-fun .def_133 () Bool (not .def_130))
(define-fun .def_127 () Bool (= |main::infd@3| (to_real 0)))
(define-fun .def_121 () Bool (= |main::__CPAchecker_TMP_1@3| (to_real 0)))
(define-fun .def_115 () Real (|*(char)*@1| .def_114))
(define-fun .def_117 () Real (strcmp .def_115 .def_116))
(define-fun .def_119 () Bool (= .def_117 |main::__CPAchecker_TMP_1@3|))
(define-fun .def_110 () Real (__BASE_ADDRESS_OF__ |__ADDRESS_OF_main::__CPAchecker_TMP_1|))
(define-fun .def_111 () Bool (= |__ADDRESS_OF_main::__CPAchecker_TMP_1| .def_110))
(define-fun .def_102 () Real (* (to_real (- 1)) optind@2))
(define-fun .def_103 () Real (+ |main::argc@1| .def_102))
(define-fun .def_104 () Bool (= .def_103 (to_real 2)))
(define-fun .def_93 () Bool (= |main::opt@3| (to_real (- 1))))
(define-fun .def_89 () Real (__string__ (to_real 0)))
(define-fun .def_90 () Real (getopt |main::argc@1| |main::argv@1| .def_89))
(define-fun .def_92 () Bool (= .def_90 |main::opt@3|))
(define-fun .def_98 () Bool (and .def_92 .def_93))
(define-fun .def_108 () Bool (and .def_98 .def_104))
(define-fun .def_112 () Bool (and .def_108 .def_111))
(define-fun .def_120 () Bool (and .def_112 .def_119))
(define-fun .def_123 () Bool (and .def_120 .def_121))
(define-fun .def_128 () Bool (and .def_123 .def_127))
(define-fun .def_124 () Bool (not .def_121))
(define-fun .def_125 () Bool (and .def_120 .def_124))
(define-fun .def_129 () Bool (or .def_125 .def_128))
(define-fun .def_134 () Bool (and .def_129 .def_133))
(define-fun .def_138 () Bool (and .def_134 .def_137))
(define-fun .def_142 () Bool (and .def_138 .def_141))
(define-fun .def_145 () Bool (and .def_142 .def_143))
(define-fun .def_156 () Bool (and .def_145 .def_155))
(define-fun .def_161 () Bool (and .def_156 .def_160))
(define-fun .def_165 () Bool (and .def_161 .def_164))
(define-fun .def_174 () Bool (and .def_165 .def_173))
(define-fun .def_177 () Bool (and .def_174 .def_175))
(define-fun .def_182 () Bool (and .def_177 .def_181))
(define-fun .def_178 () Bool (not .def_175))
(define-fun .def_179 () Bool (and .def_174 .def_178))
(define-fun .def_183 () Bool (or .def_179 .def_182))
(define-fun .def_188 () Bool (and .def_183 .def_187))
(define-fun .def_192 () Bool (and .def_188 .def_191))
(define-fun .def_198 () Bool (and .def_192 .def_197))
(define-fun .def_279 () Bool (and .def_198 .def_278))
(define-fun .def_12 () Real (__BASE_ADDRESS_OF__ __ADDRESS_OF_optind))
(define-fun .def_13 () Bool (= __ADDRESS_OF_optind .def_12))
(define-fun .def_9 () Real (__BASE_ADDRESS_OF__ __ADDRESS_OF_stderr))
(define-fun .def_10 () Bool (= __ADDRESS_OF_stderr .def_9))
(define-fun .def_73 () Bool (and .def_10 .def_13))
(define-fun .def_15 () Real (__BASE_ADDRESS_OF__ __ADDRESS_OF_Num))
(define-fun .def_16 () Bool (= __ADDRESS_OF_Num .def_15))
(define-fun .def_74 () Bool (and .def_16 .def_73))
(define-fun .def_20 () Real (__BASE_ADDRESS_OF__ __ADDRESS_OF_sort_records))
(define-fun .def_21 () Bool (= __ADDRESS_OF_sort_records .def_20))
(define-fun .def_75 () Bool (and .def_21 .def_74))
(define-fun .def_25 () Real (__BASE_ADDRESS_OF__ __ADDRESS_OF_wide_records))
(define-fun .def_26 () Bool (= __ADDRESS_OF_wide_records .def_25))
(define-fun .def_76 () Bool (and .def_26 .def_75))
(define-fun .def_30 () Real (__BASE_ADDRESS_OF__ __ADDRESS_OF_include_jump))
(define-fun .def_31 () Bool (= __ADDRESS_OF_include_jump .def_30))
(define-fun .def_77 () Bool (and .def_31 .def_76))
(define-fun .def_35 () Real (__BASE_ADDRESS_OF__ __ADDRESS_OF_records))
(define-fun .def_36 () Bool (= __ADDRESS_OF_records .def_35))
(define-fun .def_78 () Bool (and .def_36 .def_77))
(define-fun .def_37 () Bool (<= __ADDRESS_OF_records (to_real 0)))
(define-fun .def_38 () Bool (not .def_37))
(define-fun .def_79 () Bool (and .def_38 .def_78))
(define-fun .def_42 () Real (__BASE_ADDRESS_OF__ |__ADDRESS_OF_main::infd|))
(define-fun .def_43 () Bool (= |__ADDRESS_OF_main::infd| .def_42))
(define-fun .def_80 () Bool (and .def_43 .def_79))
(define-fun .def_45 () Real (__BASE_ADDRESS_OF__ |__ADDRESS_OF_main::outfd|))
(define-fun .def_46 () Bool (= |__ADDRESS_OF_main::outfd| .def_45))
(define-fun .def_81 () Bool (and .def_46 .def_80))
(define-fun .def_48 () Real (__BASE_ADDRESS_OF__ |__ADDRESS_OF_main::st|))
(define-fun .def_49 () Bool (= |__ADDRESS_OF_main::st| .def_48))
(define-fun .def_82 () Bool (and .def_49 .def_81))
(define-fun .def_56 () Real (* (to_real (- 1)) |__ADDRESS_OF_main::st|))
(define-fun .def_57 () Real (+ __ADDRESS_OF_records .def_56))
(define-fun .def_58 () Bool (<= .def_57 (to_real (- 4))))
(define-fun .def_53 () Bool (<= __ADDRESS_OF_records (to_real (- 4))))
(define-fun .def_54 () Bool (not .def_53))
(define-fun .def_59 () Bool (and .def_54 .def_58))
(define-fun .def_83 () Bool (and .def_59 .def_82))
(define-fun .def_64 () Real (__BASE_ADDRESS_OF__ |__ADDRESS_OF_main::data|))
(define-fun .def_65 () Bool (= |__ADDRESS_OF_main::data| .def_64))
(define-fun .def_84 () Bool (and .def_65 .def_83))
(define-fun .def_67 () Real (__BASE_ADDRESS_OF__ |__ADDRESS_OF_main::opt|))
(define-fun .def_68 () Bool (= |__ADDRESS_OF_main::opt| .def_67))
(define-fun .def_85 () Bool (and .def_68 .def_84))
(define-fun .def_23 () Bool (= sort_records@2 (to_real 0)))
(define-fun .def_18 () Bool (= Num@2 (to_real 0)))
(define-fun .def_69 () Bool (and .def_18 .def_23))
(define-fun .def_28 () Bool (= wide_records@2 (to_real 0)))
(define-fun .def_70 () Bool (and .def_28 .def_69))
(define-fun .def_33 () Bool (= include_jump@2 (to_real 0)))
(define-fun .def_71 () Bool (and .def_33 .def_70))
(define-fun .def_40 () Bool (= records@2 (to_real 0)))
(define-fun .def_72 () Bool (and .def_40 .def_71))
(define-fun .def_86 () Bool (and .def_72 .def_85))
(define-fun .def_1216 () Bool (and .def_86 .def_279))
(define-fun .def_739 () Bool (<= (to_real 0) Num@3))
(define-fun .def_742 () Bool (not .def_739))
(define-fun .def_735 () Real (* (to_real (- 1)) Num@3))
(define-fun .def_736 () Real (+ Num@2 .def_735))
(define-fun .def_737 () Bool (= .def_736 (to_real 1)))
(define-fun .def_730 () Bool (= |__ADDRESS_OF___VERIFIER_successful_alloc_*void#0| |process_ihex::record@3|))
(define-fun .def_725 () Real (* (to_real (- 1)) |__ADDRESS_OF___VERIFIER_successful_alloc_*void#0|))
(define-fun .def_726 () Real (+ |__ADDRESS_OF_process_ihex::crc| .def_725))
(define-fun .def_727 () Bool (<= .def_726 (to_real (- 1))))
(define-fun .def_723 () Bool (<= |__ADDRESS_OF_process_ihex::crc| (to_real (- 1))))
(define-fun .def_724 () Bool (not .def_723))
(define-fun .def_728 () Bool (and .def_724 .def_727))
(define-fun .def_731 () Bool (and .def_728 .def_730))
(define-fun .def_717 () Bool (= |process_ihex::len@3| |process_ihex::len@5|))
(define-fun .def_715 () Bool (= |process_ihex::i@5| |process_ihex::i@6|))
(define-fun .def_713 () Bool (= |process_ihex::__CPAchecker_TMP_2@3| |process_ihex::__CPAchecker_TMP_2@1|))
(define-fun .def_710 () Bool (= |nybble::n@3| |nybble::n@5|))
(define-fun .def_708 () Bool (= |nybble::__retval__@3| |nybble::__retval__@5|))
(define-fun .def_706 () Bool (= |hex::val@2| |hex::val@3|))
(define-fun .def_704 () Bool (= |hex::data@2| |hex::data@3|))
(define-fun .def_702 () Bool (= |hex::crc@2| |hex::crc@3|))
(define-fun .def_700 () Bool (= |hex::__retval__@2| |hex::__retval__@3|))
(define-fun .def_698 () Bool (= |hex::__CPAchecker_TMP_1@3| |hex::__CPAchecker_TMP_1@5|))
(define-fun .def_696 () Bool (= |hex::__CPAchecker_TMP_0@3| |hex::__CPAchecker_TMP_0@5|))
(define-fun .def_670 () Real (*unsigned_char@3 |__ADDRESS_OF_process_ihex::crc|))
(define-fun .def_498 () Real (*unsigned_char@2 |__ADDRESS_OF_process_ihex::crc|))
(define-fun .def_671 () Bool (= .def_498 .def_670))
(define-fun .def_697 () Bool (and .def_671 .def_696))
(define-fun .def_699 () Bool (and .def_697 .def_698))
(define-fun .def_701 () Bool (and .def_699 .def_700))
(define-fun .def_703 () Bool (and .def_701 .def_702))
(define-fun .def_705 () Bool (and .def_703 .def_704))
(define-fun .def_707 () Bool (and .def_705 .def_706))
(define-fun .def_709 () Bool (and .def_707 .def_708))
(define-fun .def_711 () Bool (and .def_709 .def_710))
(define-fun .def_714 () Bool (and .def_711 .def_713))
(define-fun .def_716 () Bool (and .def_714 .def_715))
(define-fun .def_718 () Bool (and .def_716 .def_717))
(define-fun .def_514 () Real (* (to_real (- 1)) |process_ihex::i@5|))
(define-fun .def_515 () Real (+ |process_ihex::i@4| .def_514))
(define-fun .def_516 () Bool (= .def_515 (to_real (- 2))))
(define-fun .def_509 () Bool (= |hex::__retval__@2| |process_ihex::len@3|))
(define-fun .def_341 () Real (*unsigned_char@1 |__ADDRESS_OF_process_ihex::crc|))
(define-fun .def_499 () Bool (= .def_341 .def_498))
(define-fun .def_344 () Bool (= |__ADDRESS_OF_process_ihex::crc| |hex::crc@2|))
(define-fun .def_500 () Bool (or .def_344 .def_499))
(define-fun .def_485 () Real (__BASE_ADDRESS_OF__ |__ADDRESS_OF_hex::val|))
(define-fun .def_486 () Bool (= |__ADDRESS_OF_hex::val| .def_485))
(define-fun .def_505 () Bool (and .def_486 .def_500))
(define-fun .def_493 () Real (*unsigned_char@2 |hex::crc@2|))
(define-fun .def_494 () Real (* (to_real (- 1)) .def_493))
(define-fun .def_491 () Real (*unsigned_char@1 |hex::crc@2|))
(define-fun .def_495 () Real (+ .def_491 .def_494))
(define-fun .def_496 () Real (+ |hex::val@2| .def_495))
(define-fun .def_497 () Bool (= .def_496 (to_real 0)))
(define-fun .def_487 () Real (_<<_ |hex::__CPAchecker_TMP_0@3| (to_real 4)))
(define-fun .def_488 () Real (_!!_ .def_487 |hex::__CPAchecker_TMP_1@3|))
(define-fun .def_490 () Bool (= .def_488 |hex::val@2|))
(define-fun .def_503 () Bool (and .def_490 .def_497))
(define-fun .def_502 () Bool (= |hex::val@2| |hex::__retval__@2|))
(define-fun .def_504 () Bool (and .def_502 .def_503))
(define-fun .def_506 () Bool (and .def_504 .def_505))
(define-fun .def_482 () Bool (= |nybble::__retval__@3| |hex::__CPAchecker_TMP_1@3|))
(define-fun .def_468 () Real (* (to_real (- 1)) |nybble::__retval__@3|))
(define-fun .def_469 () Real (+ |nybble::n@3| .def_468))
(define-fun .def_478 () Bool (= .def_469 (to_real 48)))
(define-fun .def_436 () Bool (<= |nybble::n@3| (to_real 57)))
(define-fun .def_431 () Bool (<= (to_real 48) |nybble::n@3|))
(define-fun .def_426 () Real (+ |hex::data@2| (to_real 1)))
(define-fun .def_427 () Real (*unsigned_char@1 .def_426))
(define-fun .def_429 () Bool (= .def_427 |nybble::n@3|))
(define-fun .def_422 () Real (__BASE_ADDRESS_OF__ |__ADDRESS_OF_hex::__CPAchecker_TMP_1|))
(define-fun .def_423 () Bool (= |__ADDRESS_OF_hex::__CPAchecker_TMP_1| .def_422))
(define-fun .def_419 () Bool (= |nybble::__retval__@2| |hex::__CPAchecker_TMP_0@3|))
(define-fun .def_402 () Real (* (to_real (- 1)) |nybble::__retval__@2|))
(define-fun .def_403 () Real (+ |nybble::n@2| .def_402))
(define-fun .def_415 () Bool (= .def_403 (to_real 48)))
(define-fun .def_363 () Bool (<= |nybble::n@2| (to_real 57)))
(define-fun .def_357 () Bool (<= (to_real 48) |nybble::n@2|))
(define-fun .def_352 () Real (*unsigned_char@1 |hex::data@2|))
(define-fun .def_354 () Bool (= .def_352 |nybble::n@2|))
(define-fun .def_349 () Real (__BASE_ADDRESS_OF__ |__ADDRESS_OF_hex::__CPAchecker_TMP_0|))
(define-fun .def_350 () Bool (= |__ADDRESS_OF_hex::__CPAchecker_TMP_0| .def_349))
(define-fun .def_337 () Real (* (to_real (- 1)) |hex::data@2|))
(define-fun .def_338 () Real (+ |process_ihex::i@4| .def_337))
(define-fun .def_339 () Real (+ |process_ihex::data@2| .def_338))
(define-fun .def_340 () Bool (= .def_339 (to_real 0)))
(define-fun .def_345 () Bool (and .def_340 .def_344))
(define-fun .def_342 () Bool (= |process_ihex::crc@2| .def_341))
(define-fun .def_346 () Bool (and .def_342 .def_345))
(define-fun .def_307 () Real (* (to_real (- 1)) |process_ihex::i@4|))
(define-fun .def_329 () Real (+ |process_ihex::size@2| .def_307))
(define-fun .def_330 () Bool (<= (to_real 10) .def_329))
(define-fun .def_323 () Bool (= |process_ihex::i@3| |process_ihex::i@4|))
(define-fun .def_322 () Bool (= |process_ihex::__CPAchecker_TMP_1@2| |process_ihex::__CPAchecker_TMP_1@1|))
(define-fun .def_324 () Bool (and .def_322 .def_323))
(define-fun .def_297 () Bool (= |process_ihex::line@2| |process_ihex::line@3|))
(define-fun .def_325 () Bool (and .def_297 .def_324))
(define-fun .def_280 () Bool (<= |process_ihex::size@2| |process_ihex::i@3|))
(define-fun .def_326 () Bool (and .def_280 .def_325))
(define-fun .def_313 () Real (+ |process_ihex::data@2| |process_ihex::__CPAchecker_TMP_1@2|))
(define-fun .def_314 () Real (*unsigned_char@1 .def_313))
(define-fun .def_316 () Bool (= .def_314 (to_real 58)))
(define-fun .def_308 () Real (+ |process_ihex::i@3| .def_307))
(define-fun .def_309 () Bool (= .def_308 (to_real (- 1))))
(define-fun .def_304 () Bool (= |process_ihex::i@3| |process_ihex::__CPAchecker_TMP_1@2|))
(define-fun .def_310 () Bool (and .def_304 .def_309))
(define-fun .def_301 () Real (__BASE_ADDRESS_OF__ |__ADDRESS_OF_process_ihex::__CPAchecker_TMP_1|))
(define-fun .def_302 () Bool (= |__ADDRESS_OF_process_ihex::__CPAchecker_TMP_1| .def_301))
(define-fun .def_311 () Bool (and .def_302 .def_310))
(define-fun .def_283 () Real (+ |process_ihex::data@2| |process_ihex::i@3|))
(define-fun .def_284 () Real (*unsigned_char@1 .def_283))
(define-fun .def_286 () Bool (= .def_284 (to_real 10)))
(define-fun .def_289 () Bool (not .def_286))
(define-fun .def_281 () Bool (not .def_280))
(define-fun .def_290 () Bool (and .def_281 .def_289))
(define-fun .def_298 () Bool (and .def_290 .def_297))
(define-fun .def_293 () Real (* (to_real (- 1)) |process_ihex::line@3|))
(define-fun .def_294 () Real (+ |process_ihex::line@2| .def_293))
(define-fun .def_295 () Bool (= .def_294 (to_real (- 1))))
(define-fun .def_288 () Bool (and .def_281 .def_286))
(define-fun .def_296 () Bool (and .def_288 .def_295))
(define-fun .def_299 () Bool (or .def_296 .def_298))
(define-fun .def_312 () Bool (and .def_299 .def_311))
(define-fun .def_318 () Bool (and .def_312 .def_316))
(define-fun .def_327 () Bool (or .def_318 .def_326))
(define-fun .def_334 () Bool (and .def_327 .def_330))
(define-fun .def_347 () Bool (and .def_334 .def_346))
(define-fun .def_351 () Bool (and .def_347 .def_350))
(define-fun .def_355 () Bool (and .def_351 .def_354))
(define-fun .def_359 () Bool (and .def_355 .def_357))
(define-fun .def_365 () Bool (and .def_359 .def_363))
(define-fun .def_416 () Bool (and .def_365 .def_415))
(define-fun .def_410 () Bool (= .def_403 (to_real 55)))
(define-fun .def_376 () Bool (<= |nybble::n@2| (to_real 70)))
(define-fun .def_370 () Bool (<= (to_real 65) |nybble::n@2|))
(define-fun .def_366 () Bool (not .def_363))
(define-fun .def_367 () Bool (and .def_359 .def_366))
(define-fun .def_360 () Bool (not .def_357))
(define-fun .def_361 () Bool (and .def_355 .def_360))
(define-fun .def_368 () Bool (or .def_361 .def_367))
(define-fun .def_372 () Bool (and .def_368 .def_370))
(define-fun .def_378 () Bool (and .def_372 .def_376))
(define-fun .def_411 () Bool (and .def_378 .def_410))
(define-fun .def_404 () Bool (= .def_403 (to_real 87)))
(define-fun .def_389 () Bool (<= |nybble::n@2| (to_real 102)))
(define-fun .def_383 () Bool (<= (to_real 97) |nybble::n@2|))
(define-fun .def_379 () Bool (not .def_376))
(define-fun .def_380 () Bool (and .def_372 .def_379))
(define-fun .def_373 () Bool (not .def_370))
(define-fun .def_374 () Bool (and .def_368 .def_373))
(define-fun .def_381 () Bool (or .def_374 .def_380))
(define-fun .def_385 () Bool (and .def_381 .def_383))
(define-fun .def_391 () Bool (and .def_385 .def_389))
(define-fun .def_405 () Bool (and .def_391 .def_404))
(define-fun .def_396 () Bool (= |nybble::__retval__@2| (to_real 0)))
(define-fun .def_392 () Bool (not .def_389))
(define-fun .def_393 () Bool (and .def_385 .def_392))
(define-fun .def_386 () Bool (not .def_383))
(define-fun .def_387 () Bool (and .def_381 .def_386))
(define-fun .def_394 () Bool (or .def_387 .def_393))
(define-fun .def_397 () Bool (and .def_394 .def_396))
(define-fun .def_406 () Bool (or .def_397 .def_405))
(define-fun .def_412 () Bool (or .def_406 .def_411))
(define-fun .def_417 () Bool (or .def_412 .def_416))
(define-fun .def_420 () Bool (and .def_417 .def_419))
(define-fun .def_424 () Bool (and .def_420 .def_423))
(define-fun .def_430 () Bool (and .def_424 .def_429))
(define-fun .def_433 () Bool (and .def_430 .def_431))
(define-fun .def_438 () Bool (and .def_433 .def_436))
(define-fun .def_479 () Bool (and .def_438 .def_478))
(define-fun .def_474 () Bool (= .def_469 (to_real 55)))
(define-fun .def_447 () Bool (<= |nybble::n@3| (to_real 70)))
(define-fun .def_442 () Bool (<= (to_real 65) |nybble::n@3|))
(define-fun .def_439 () Bool (not .def_436))
(define-fun .def_440 () Bool (and .def_433 .def_439))
(define-fun .def_434 () Bool (not .def_431))
(define-fun .def_435 () Bool (and .def_430 .def_434))
(define-fun .def_441 () Bool (or .def_435 .def_440))
(define-fun .def_444 () Bool (and .def_441 .def_442))
(define-fun .def_449 () Bool (and .def_444 .def_447))
(define-fun .def_475 () Bool (and .def_449 .def_474))
(define-fun .def_470 () Bool (= .def_469 (to_real 87)))
(define-fun .def_458 () Bool (<= |nybble::n@3| (to_real 102)))
(define-fun .def_453 () Bool (<= (to_real 97) |nybble::n@3|))
(define-fun .def_450 () Bool (not .def_447))
(define-fun .def_451 () Bool (and .def_444 .def_450))
(define-fun .def_445 () Bool (not .def_442))
(define-fun .def_446 () Bool (and .def_441 .def_445))
(define-fun .def_452 () Bool (or .def_446 .def_451))
(define-fun .def_455 () Bool (and .def_452 .def_453))
(define-fun .def_460 () Bool (and .def_455 .def_458))
(define-fun .def_471 () Bool (and .def_460 .def_470))
(define-fun .def_465 () Bool (= |nybble::__retval__@3| (to_real 0)))
(define-fun .def_461 () Bool (not .def_458))
(define-fun .def_462 () Bool (and .def_455 .def_461))
(define-fun .def_456 () Bool (not .def_453))
(define-fun .def_457 () Bool (and .def_452 .def_456))
(define-fun .def_463 () Bool (or .def_457 .def_462))
(define-fun .def_466 () Bool (and .def_463 .def_465))
(define-fun .def_472 () Bool (or .def_466 .def_471))
(define-fun .def_476 () Bool (or .def_472 .def_475))
(define-fun .def_480 () Bool (or .def_476 .def_479))
(define-fun .def_483 () Bool (and .def_480 .def_482))
(define-fun .def_507 () Bool (and .def_483 .def_506))
(define-fun .def_510 () Bool (and .def_507 .def_509))
(define-fun .def_517 () Bool (and .def_510 .def_516))
(define-fun .def_519 () Bool (and .def_28 .def_517))
(define-fun .def_719 () Bool (and .def_519 .def_718))
(define-fun .def_691 () Real (* (to_real (- 1)) |process_ihex::i@6|))
(define-fun .def_692 () Real (+ |process_ihex::i@5| .def_691))
(define-fun .def_693 () Bool (= .def_692 (to_real (- 2))))
(define-fun .def_685 () Real (* (to_real (- 1)) |process_ihex::len@5|))
(define-fun .def_686 () Real (+ |process_ihex::__CPAchecker_TMP_2@3| .def_685))
(define-fun .def_687 () Real (+ |process_ihex::len@4| .def_686))
(define-fun .def_688 () Bool (= .def_687 (to_real 0)))
(define-fun .def_694 () Bool (and .def_688 .def_693))
(define-fun .def_681 () Bool (= |hex::__retval__@3| |process_ihex::__CPAchecker_TMP_2@3|))
(define-fun .def_538 () Bool (= |__ADDRESS_OF_process_ihex::crc| |hex::crc@3|))
(define-fun .def_672 () Bool (or .def_538 .def_671))
(define-fun .def_677 () Bool (and .def_486 .def_672))
(define-fun .def_665 () Real (*unsigned_char@3 |hex::crc@3|))
(define-fun .def_666 () Real (* (to_real (- 1)) .def_665))
(define-fun .def_663 () Real (*unsigned_char@2 |hex::crc@3|))
(define-fun .def_667 () Real (+ .def_663 .def_666))
(define-fun .def_668 () Real (+ |hex::val@3| .def_667))
(define-fun .def_669 () Bool (= .def_668 (to_real 0)))
(define-fun .def_659 () Real (_<<_ |hex::__CPAchecker_TMP_0@5| (to_real 4)))
(define-fun .def_660 () Real (_!!_ .def_659 |hex::__CPAchecker_TMP_1@5|))
(define-fun .def_662 () Bool (= .def_660 |hex::val@3|))
(define-fun .def_675 () Bool (and .def_662 .def_669))
(define-fun .def_674 () Bool (= |hex::val@3| |hex::__retval__@3|))
(define-fun .def_676 () Bool (and .def_674 .def_675))
(define-fun .def_678 () Bool (and .def_676 .def_677))
(define-fun .def_657 () Bool (= |nybble::__retval__@5| |hex::__CPAchecker_TMP_1@5|))
(define-fun .def_643 () Real (* (to_real (- 1)) |nybble::__retval__@5|))
(define-fun .def_644 () Real (+ |nybble::n@5| .def_643))
(define-fun .def_653 () Bool (= .def_644 (to_real 48)))
(define-fun .def_611 () Bool (<= |nybble::n@5| (to_real 57)))
(define-fun .def_606 () Bool (<= (to_real 48) |nybble::n@5|))
(define-fun .def_601 () Real (+ |hex::data@3| (to_real 1)))
(define-fun .def_602 () Real (*unsigned_char@2 .def_601))
(define-fun .def_604 () Bool (= .def_602 |nybble::n@5|))
(define-fun .def_597 () Bool (= |nybble::__retval__@4| |hex::__CPAchecker_TMP_0@5|))
(define-fun .def_583 () Real (* (to_real (- 1)) |nybble::__retval__@4|))
(define-fun .def_584 () Real (+ |nybble::n@4| .def_583))
(define-fun .def_593 () Bool (= .def_584 (to_real 48)))
(define-fun .def_551 () Bool (<= |nybble::n@4| (to_real 57)))
(define-fun .def_546 () Bool (<= (to_real 48) |nybble::n@4|))
(define-fun .def_542 () Real (*unsigned_char@2 |hex::data@3|))
(define-fun .def_544 () Bool (= .def_542 |nybble::n@4|))
(define-fun .def_533 () Real (* (to_real (- 1)) |hex::data@3|))
(define-fun .def_534 () Real (+ |process_ihex::i@5| .def_533))
(define-fun .def_535 () Real (+ |process_ihex::data@2| .def_534))
(define-fun .def_536 () Bool (= .def_535 (to_real 0)))
(define-fun .def_539 () Bool (and .def_536 .def_538))
(define-fun .def_527 () Real (__BASE_ADDRESS_OF__ |__ADDRESS_OF_process_ihex::__CPAchecker_TMP_2|))
(define-fun .def_528 () Bool (= |__ADDRESS_OF_process_ihex::__CPAchecker_TMP_2| .def_527))
(define-fun .def_523 () Real (_<<_ |process_ihex::len@3| (to_real 8)))
(define-fun .def_525 () Bool (= .def_523 |process_ihex::len@4|))
(define-fun .def_529 () Bool (and .def_525 .def_528))
(define-fun .def_520 () Bool (not .def_28))
(define-fun .def_521 () Bool (and .def_517 .def_520))
(define-fun .def_530 () Bool (and .def_521 .def_529))
(define-fun .def_540 () Bool (and .def_530 .def_539))
(define-fun .def_541 () Bool (and .def_350 .def_540))
(define-fun .def_545 () Bool (and .def_541 .def_544))
(define-fun .def_548 () Bool (and .def_545 .def_546))
(define-fun .def_553 () Bool (and .def_548 .def_551))
(define-fun .def_594 () Bool (and .def_553 .def_593))
(define-fun .def_589 () Bool (= .def_584 (to_real 55)))
(define-fun .def_562 () Bool (<= |nybble::n@4| (to_real 70)))
(define-fun .def_557 () Bool (<= (to_real 65) |nybble::n@4|))
(define-fun .def_554 () Bool (not .def_551))
(define-fun .def_555 () Bool (and .def_548 .def_554))
(define-fun .def_549 () Bool (not .def_546))
(define-fun .def_550 () Bool (and .def_545 .def_549))
(define-fun .def_556 () Bool (or .def_550 .def_555))
(define-fun .def_559 () Bool (and .def_556 .def_557))
(define-fun .def_564 () Bool (and .def_559 .def_562))
(define-fun .def_590 () Bool (and .def_564 .def_589))
(define-fun .def_585 () Bool (= .def_584 (to_real 87)))
(define-fun .def_573 () Bool (<= |nybble::n@4| (to_real 102)))
(define-fun .def_568 () Bool (<= (to_real 97) |nybble::n@4|))
(define-fun .def_565 () Bool (not .def_562))
(define-fun .def_566 () Bool (and .def_559 .def_565))
(define-fun .def_560 () Bool (not .def_557))
(define-fun .def_561 () Bool (and .def_556 .def_560))
(define-fun .def_567 () Bool (or .def_561 .def_566))
(define-fun .def_570 () Bool (and .def_567 .def_568))
(define-fun .def_575 () Bool (and .def_570 .def_573))
(define-fun .def_586 () Bool (and .def_575 .def_585))
(define-fun .def_580 () Bool (= |nybble::__retval__@4| (to_real 0)))
(define-fun .def_576 () Bool (not .def_573))
(define-fun .def_577 () Bool (and .def_570 .def_576))
(define-fun .def_571 () Bool (not .def_568))
(define-fun .def_572 () Bool (and .def_567 .def_571))
(define-fun .def_578 () Bool (or .def_572 .def_577))
(define-fun .def_581 () Bool (and .def_578 .def_580))
(define-fun .def_587 () Bool (or .def_581 .def_586))
(define-fun .def_591 () Bool (or .def_587 .def_590))
(define-fun .def_595 () Bool (or .def_591 .def_594))
(define-fun .def_598 () Bool (and .def_595 .def_597))
(define-fun .def_599 () Bool (and .def_423 .def_598))
(define-fun .def_605 () Bool (and .def_599 .def_604))
(define-fun .def_608 () Bool (and .def_605 .def_606))
(define-fun .def_613 () Bool (and .def_608 .def_611))
(define-fun .def_654 () Bool (and .def_613 .def_653))
(define-fun .def_649 () Bool (= .def_644 (to_real 55)))
(define-fun .def_622 () Bool (<= |nybble::n@5| (to_real 70)))
(define-fun .def_617 () Bool (<= (to_real 65) |nybble::n@5|))
(define-fun .def_614 () Bool (not .def_611))
(define-fun .def_615 () Bool (and .def_608 .def_614))
(define-fun .def_609 () Bool (not .def_606))
(define-fun .def_610 () Bool (and .def_605 .def_609))
(define-fun .def_616 () Bool (or .def_610 .def_615))
(define-fun .def_619 () Bool (and .def_616 .def_617))
(define-fun .def_624 () Bool (and .def_619 .def_622))
(define-fun .def_650 () Bool (and .def_624 .def_649))
(define-fun .def_645 () Bool (= .def_644 (to_real 87)))
(define-fun .def_633 () Bool (<= |nybble::n@5| (to_real 102)))
(define-fun .def_628 () Bool (<= (to_real 97) |nybble::n@5|))
(define-fun .def_625 () Bool (not .def_622))
(define-fun .def_626 () Bool (and .def_619 .def_625))
(define-fun .def_620 () Bool (not .def_617))
(define-fun .def_621 () Bool (and .def_616 .def_620))
(define-fun .def_627 () Bool (or .def_621 .def_626))
(define-fun .def_630 () Bool (and .def_627 .def_628))
(define-fun .def_635 () Bool (and .def_630 .def_633))
(define-fun .def_646 () Bool (and .def_635 .def_645))
(define-fun .def_640 () Bool (= |nybble::__retval__@5| (to_real 0)))
(define-fun .def_636 () Bool (not .def_633))
(define-fun .def_637 () Bool (and .def_630 .def_636))
(define-fun .def_631 () Bool (not .def_628))
(define-fun .def_632 () Bool (and .def_627 .def_631))
(define-fun .def_638 () Bool (or .def_632 .def_637))
(define-fun .def_641 () Bool (and .def_638 .def_640))
(define-fun .def_647 () Bool (or .def_641 .def_646))
(define-fun .def_651 () Bool (or .def_647 .def_650))
(define-fun .def_655 () Bool (or .def_651 .def_654))
(define-fun .def_658 () Bool (and .def_655 .def_657))
(define-fun .def_679 () Bool (and .def_658 .def_678))
(define-fun .def_682 () Bool (and .def_679 .def_681))
(define-fun .def_695 () Bool (and .def_682 .def_694))
(define-fun .def_720 () Bool (or .def_695 .def_719))
(define-fun .def_732 () Bool (and .def_720 .def_731))
(define-fun .def_738 () Bool (and .def_732 .def_737))
(define-fun .def_743 () Bool (and .def_738 .def_742))
(define-fun .def_1217 () Bool (and .def_743 .def_1216))
(assert .def_1217)
